results/real/sos1/feb_13_380.out
Version identifier: 22.1.1.0 | 2022-11-28 | 9160aff4d
CPXPARAM_Threads                                 1
CPXPARAM_MIP_Strategy_VariableSelect             3
CPXPARAM_TimeLimit                               599.99999278400003
1 of 1 MIP starts provided solutions.
MIP start 'm1' defined initial solution with objective 113.0000.
Tried aggregator 1 time.
MIP Presolve eliminated 19 rows and 1520 columns.
MIP Presolve modified 33 coefficients.
Reduced MIP has 2274 rows, 3420 columns, and 95625 nonzeros.
Reduced MIP has 3420 binaries, 0 generals, 0 SOSs, and 0 indicators.
Presolve time = 0.06 sec. (152.70 ticks)
Probing time = 0.01 sec. (13.45 ticks)
Tried aggregator 1 time.
Detecting symmetries...
MIP Presolve modified 9 coefficients.
Reduced MIP has 2274 rows, 3420 columns, and 95739 nonzeros.
Reduced MIP has 3420 binaries, 0 generals, 0 SOSs, and 0 indicators.
Presolve time = 0.05 sec. (142.15 ticks)
Probing time = 0.01 sec. (13.45 ticks)
Clique table members: 1511.
MIP emphasis: balance optimality and feasibility.
MIP search method: dynamic search.
Parallel mode: none, using 1 thread.
Root relaxation solution time = 0.02 sec. (41.79 ticks)

        Nodes                                         Cuts/
   Node  Left     Objective  IInf  Best Integer    Best Bound    ItCnt     Gap

*     0+    0                          113.0000    72390.0000              --- 
      0     0      380.0000    72      113.0000      380.0000      672  236.28%
*     0+    0                          380.0000      380.0000             0.00%
      0     0        cutoff            380.0000      380.0000      672    0.00%
Elapsed time = 0.22 sec. (492.57 ticks, tree = 0.01 MB, solutions = 2)

Root node processing (before b&c):
  Real time             =    0.22 sec. (492.77 ticks)
Sequential b&c:
  Real time             =    0.00 sec. (0.00 ticks)
                          ------------
Total (root+branch&cut) =    0.22 sec. (492.77 ticks)
Primal:	380
Dual:	380
Status:	Optimal
Time:	0.22
Sequence:
	11
	6
	0
	9
	9
	6
	9
	0
	9
	6
	4
	2
	9
	6
	2
	5
	4
	0
	9
	9
	6
	4
	9
	0
	6
	9
	0
	5
	6
	2
	9
	4
	4
	9
	6
	4
	0
	4
	6
	0
	9
	9
	6
	4
	9
	9
	4
	6
	9
	9
	9
	4
	9
	9
	9
	9
	0
	9
	6
	9
	0
	9
	6
	0
	9
	1
	1
	4
	6
	9
	9
	0
	9
	9
	0
	6
	9
	5
	5
	9
	5
	5
	9
	5
	5
	9
	5
	5
	9
	5
	2
	5
	5
	9
	5
	5
	9
	5
	0
	4
	6
	0
	4
	1
	6
	4
	0
	1
	4
	0
	4
	4
	1
	0
	5
	4
	0
	5
	4
	0
	5
	1
	4
	6
	0
	5
	4
	0
	4
	4
	0
	1
	4
	6
	1
	4
	1
	4
	4
	1
	4
	6
	0
	9
	5
	0
	5
	4
	1
	9
	6
	9
	0
	9
	6
	0
	9
	9
	6
	0
	9
	9
	5
	5
	9
	6
	9
	0
	4
	11
	6
	4
	0
	4
	4
	0
	1
	4
	4
	0
	4
	4
	0
	4
	4
	0
	4
	6
	0
	4
	9
	0
	9
	9
	0
	6
	5
	2
	9
	9
	6
	9
	11
	9
	0
	9
	4
	2
	6
	4
	0
	4
	9
	0
	6
	9
	11
	9
	6
	9
	9
	9
	0
	6
	5
	9
	5
	9
	6
	9
	9
	9
	6
	9
	9
	0
	9
	9
	6
	0
	9
	9
	9
	6
	0
	4
	5
	1
	0
	9
	6
	0
	1
	9
	11
	6
	0
	4
	5
	0
	6
	4
	0
	1
	4
	0
	6
	4
	1
	0
	6
	9
	4
	5
	0
	6
	4
	0
	4
	4
	0
	6
	4
	0
	4
	4
	9
	4
	4
	1
	1
	1
	9
	1
	6
	4
	0
	1
	1
	9
	4
	0
	6
	9
	5
	5
	2
	5
	9
	0
	4
	6
	2
	9
	9
	6
	4
	0
	9
	9
	6
	0
	9
	9
	11
	9
	0
	9
	9
	9
	4
	9
	4
	6
	9
	5
	0
	9
	1
	9
	0
	11
	4
	0
	9
	6
	0
	4
	9
	6
	4
	9
	4
	6
	2
	9
	9
	5
	6
	1
	2
	11
	5
	1
	4
	0
	6
	1
	9
	5
	0
	1
	9
	6
	1
	1
	2
	6
	5
	0
